unknown
(model
; cardinality of BoundSet is 5
(declare-sort BoundSet 0)
; rep: @uc_BoundSet_0
; rep: @uc_BoundSet_1
; rep: @uc_BoundSet_2
; rep: @uc_BoundSet_3
; rep: @uc_BoundSet_4
; cardinality of UnboundSet is 1
(declare-sort UnboundSet 0)
(declare-fun groundTerm_6 () UnboundSet)
(define-fun IsSnowboarding ((BOUND_VARIABLE_583 BoundSet)) Bool (ite (= @uc_BoundSet_4 BOUND_VARIABLE_583) true (= @uc_BoundSet_0 BOUND_VARIABLE_583)))
(define-fun OnSnow ((BOUND_VARIABLE_598 BoundSet) (BOUND_VARIABLE_599 BoundSet)) Bool true)
(define-fun IsSunny ((BOUND_VARIABLE_583 BoundSet)) Bool true)
(define-fun IsCold ((BOUND_VARIABLE_583 BoundSet)) Bool true)
(define-fun IsYoung ((BOUND_VARIABLE_583 BoundSet)) Bool false)
(define-fun IsSizingUp ((BOUND_VARIABLE_598 BoundSet) (BOUND_VARIABLE_599 BoundSet)) Bool false)
)
sat
(model
; cardinality of BoundSet is 1
(declare-sort BoundSet 0)
; rep: @uc_BoundSet_0
; cardinality of UnboundSet is 1
(declare-sort UnboundSet 0)
(declare-fun groundTerm_14 () UnboundSet)
(define-fun IsSnowboarding ((BOUND_VARIABLE_662 BoundSet)) Bool true)
(define-fun OnSnow ((BOUND_VARIABLE_669 BoundSet) (BOUND_VARIABLE_670 BoundSet)) Bool true)
(define-fun IsSunny ((BOUND_VARIABLE_662 BoundSet)) Bool true)
(define-fun IsCold ((BOUND_VARIABLE_662 BoundSet)) Bool true)
(define-fun IsYoung ((BOUND_VARIABLE_662 BoundSet)) Bool true)
(define-fun IsSizingUp ((BOUND_VARIABLE_669 BoundSet) (BOUND_VARIABLE_670 BoundSet)) Bool false)
)
